language ESSENCE' 1.0
$ Generated from file ../../j30/j3041_2.mm
letting jobs = 32
letting horizon = 68
letting resourcesRenew = 2
letting resourcesNonrenew = 2
letting successors = [[2, 3, 4], [6, 25], [5], [13, 17, 24], [7, 9, 18], [10, 30], [8, 11], [15, 22, 25], [20, 21, 26], [12, 18, 19], [26], [16, 17], [14, 15, 20], [22, 27, 28], [21, 28], [21, 22, 24], [23], [23, 24], [29], [25], [31], [23, 29], [31], [27], [29, 30], [27, 28], [31], [30], [32], [32], [32], []]
letting durations = [[0], [6, 7, 7], [4, 5, 7], [3, 3, 7], [5, 9, 9], [2, 5, 10], [6, 6, 8], [3, 5, 6], [2, 2, 2], [1, 8, 9], [4, 8, 9], [1, 7, 8], [6, 8, 9], [1, 6, 7], [6, 7, 9], [3, 3, 5], [3, 7, 9], [4, 6, 7], [2, 5, 9], [6, 9, 10], [1, 3, 4], [1, 1, 4], [4, 5, 10], [2, 3, 9], [1, 1, 5], [3, 10, 10], [2, 3, 8], [3, 10, 10], [6, 7, 9], [3, 4, 8], [2, 7, 9], [0]]
letting resourceUsage = [[[0, 0, 0, 0]], [[0, 5, 8, 8], [7, 0, 8, 4], [0, 4, 7, 5]], [[0, 9, 2, 5], [9, 0, 2, 4], [9, 0, 1, 3]], [[7, 0, 6, 9], [0, 6, 7, 9], [0, 5, 6, 9]], [[0, 6, 9, 10], [0, 5, 8, 7], [5, 0, 9, 5]], [[0, 7, 7, 9], [9, 0, 6, 6], [8, 0, 6, 4]], [[7, 0, 5, 10], [0, 10, 5, 8], [7, 0, 3, 8]], [[8, 0, 10, 6], [0, 7, 6, 6], [5, 0, 5, 3]], [[0, 3, 6, 2], [10, 0, 10, 4], [0, 5, 5, 3]], [[0, 10, 8, 2], [0, 9, 7, 1], [0, 7, 6, 1]], [[0, 8, 5, 10], [0, 6, 5, 8], [2, 0, 5, 6]], [[4, 0, 5, 3], [3, 0, 3, 3], [0, 2, 3, 2]], [[6, 0, 9, 8], [6, 0, 9, 7], [5, 0, 9, 5]], [[7, 0, 7, 5], [0, 1, 7, 4], [4, 0, 5, 4]], [[0, 6, 6, 5], [7, 0, 5, 4], [0, 6, 3, 4]], [[0, 5, 4, 6], [3, 0, 4, 6], [2, 0, 4, 6]], [[0, 8, 2, 10], [0, 7, 2, 7], [0, 3, 1, 3]], [[2, 0, 8, 10], [2, 0, 3, 10], [0, 8, 2, 9]], [[6, 0, 4, 10], [0, 6, 4, 10], [0, 4, 4, 10]], [[8, 0, 10, 8], [8, 0, 10, 7], [8, 0, 10, 6]], [[0, 8, 8, 5], [5, 0, 8, 3], [0, 8, 8, 2]], [[6, 0, 10, 9], [0, 8, 9, 9], [0, 6, 9, 7]], [[0, 6, 10, 3], [0, 5, 5, 3], [0, 5, 4, 3]], [[0, 7, 6, 7], [0, 4, 5, 6], [0, 4, 4, 5]], [[6, 0, 3, 6], [0, 6, 3, 6], [0, 5, 3, 6]], [[0, 6, 7, 6], [8, 0, 5, 5], [9, 0, 3, 4]], [[9, 0, 7, 6], [6, 0, 4, 5], [0, 7, 1, 5]], [[0, 6, 6, 3], [2, 0, 2, 3], [0, 5, 2, 3]], [[10, 0, 6, 5], [8, 0, 6, 5], [6, 0, 3, 2]], [[0, 5, 2, 9], [4, 0, 2, 6], [0, 4, 2, 4]], [[7, 0, 3, 9], [5, 0, 3, 7], [0, 7, 2, 6]], [[0, 0, 0, 0]]]
letting resourceLimits = [13, 14, 164, 174]
letting candidateParents = [[], [1, 3, 4, 5, 7, 8, 9, 11, 13, 14, 15, 20, 26, 28], [1, 2, 4, 6, 10, 12, 13, 14, 16, 17, 19], [1, 2, 3, 5, 6, 7, 8, 9, 10, 11, 12, 16, 18, 19, 26], [2, 3, 4, 6, 10, 12, 13, 14, 16, 17, 19], [2, 3, 4, 5, 7, 8, 9, 11, 13, 14, 15, 20, 25, 26, 28], [2, 4, 5, 6, 9, 10, 12, 13, 14, 16, 17, 18, 19, 20, 24], [2, 4, 6, 7, 9, 10, 11, 12, 13, 14, 16, 17, 18, 19, 20, 24, 26, 27], [2, 4, 5, 6, 7, 8, 10, 11, 12, 13, 14, 15, 16, 17, 18, 19, 22, 23, 24], [3, 4, 5, 6, 7, 8, 9, 11, 13, 14, 15, 20, 25, 26, 28, 30], [2, 4, 6, 7, 8, 9, 10, 12, 13, 14, 15, 16, 17, 18, 19, 20, 21, 22, 23, 24, 25, 29], [3, 4, 5, 7, 8, 9, 10, 11, 13, 14, 15, 18, 19, 20, 25, 26, 28, 30], [2, 3, 4, 5, 6, 7, 8, 9, 10, 11, 12, 16, 17, 18, 19, 24, 26], [2, 3, 5, 6, 7, 8, 9, 10, 11, 12, 13, 15, 16, 17, 18, 19, 20, 21, 24, 25, 26], [2, 6, 8, 9, 10, 11, 12, 13, 14, 16, 17, 18, 19, 20, 22, 23, 24, 25, 26, 27, 29], [3, 4, 5, 7, 8, 9, 11, 12, 13, 14, 15, 17, 18, 19, 20, 25, 26, 28, 30], [3, 4, 5, 7, 8, 9, 11, 12, 13, 14, 15, 16, 18, 19, 20, 21, 22, 24, 25, 26, 27, 28, 29, 30], [4, 5, 7, 8, 9, 10, 11, 12, 13, 14, 15, 16, 17, 19, 20, 21, 22, 25, 26, 28, 29, 30], [3, 4, 5, 7, 8, 9, 10, 11, 12, 13, 14, 15, 16, 17, 18, 20, 21, 22, 23, 24, 25, 26, 27, 28, 30, 31], [2, 6, 7, 8, 9, 10, 11, 12, 13, 14, 15, 16, 17, 18, 19, 21, 22, 23, 24, 26, 27, 28, 31], [9, 11, 14, 15, 16, 17, 18, 19, 20, 22, 23, 24, 25, 26, 27, 28, 29, 30], [8, 9, 11, 14, 15, 16, 17, 18, 19, 20, 21, 24, 25, 26, 27, 28, 30], [9, 11, 15, 17, 18, 19, 20, 21, 22, 24, 25, 26, 27, 28, 29, 30], [4, 7, 8, 9, 11, 13, 14, 15, 16, 17, 18, 19, 20, 21, 22, 23, 25, 26, 28, 29, 30], [2, 6, 8, 10, 11, 12, 14, 15, 16, 17, 18, 19, 20, 21, 22, 23, 24, 26, 27, 28, 31], [2, 4, 6, 8, 9, 10, 11, 12, 13, 14, 15, 16, 17, 18, 19, 20, 21, 22, 23, 24, 25, 29], [8, 14, 15, 17, 19, 20, 21, 22, 23, 24, 25, 26, 28, 29, 30], [2, 6, 10, 12, 14, 15, 16, 17, 18, 19, 20, 21, 22, 23, 24, 25, 26, 27, 29, 31], [11, 15, 17, 18, 19, 21, 22, 23, 24, 25, 26, 27, 28, 30, 31], [6, 10, 12, 16, 17, 18, 19, 21, 22, 23, 24, 25, 27, 28, 29, 31], [19, 20, 21, 23, 25, 27, 28, 29, 30], [29, 30, 31]]
